Tried aggregator 1 time.
Reduced MIP has 1477 rows, 160255 columns, and 635129 nonzeros.
Reduced MIP has 160255 binaries, 0 generals, 0 SOSs, and 0 indicators.
Presolve time = 0.38 sec. (257.13 ticks)
Found incumbent of value 1.4092571e+008 after 2.11 sec. (1422.52 ticks)
Tried aggregator 1 time.
Reduced MIP has 1477 rows, 160255 columns, and 635129 nonzeros.
Reduced MIP has 160255 binaries, 0 generals, 0 SOSs, and 0 indicators.
Presolve time = 0.39 sec. (257.74 ticks)
Probing time = 0.19 sec. (43.19 ticks)
Clique table members: 1250.
MIP emphasis: balance optimality and feasibility.
MIP search method: dynamic search.
Parallel mode: deterministic, using up to 6 threads.
Root relaxation solution time = 2.31 sec. (2810.10 ticks)

        Nodes                                         Cuts/
   Node  Left     Objective  IInf  Best Integer    Best Bound    ItCnt     Gap

*     0+    0                      1.40926e+008 -1.36058e+010              --- 
      0     0 -1.30334e+008    92  1.40926e+008 -1.30334e+008     5101  192.48%
      0     0 -1.30334e+008   119  1.40926e+008    MIRcuts: 1     5121  192.48%
      0     0 -1.30334e+008   122  1.40926e+008    MIRcuts: 1     5154  192.48%
      0     2 -1.30334e+008   122  1.40926e+008 -1.30334e+008     5154  192.48%
Elapsed time = 14.64 sec. (11555.10 ticks, tree = 0.01 MB, solutions = 1)
      1     3 -6.37704e+007   107  1.40926e+008 -1.30334e+008    16250  192.48%
      2     4  6150662.0000    14  1.40926e+008 -1.30334e+008    21118  192.48%
      3     5  1.39349e+008    80  1.40926e+008 -6.33569e+007    33120  144.96%
      4     6  9505572.0000    14  1.40926e+008 -6.33569e+007    36506  144.96%
      5     7  2.82637e+007    42  1.40926e+008 -6.33569e+007    52636  144.96%
      6     8  6150662.0000    14  1.40926e+008 -6.33569e+007    52648  144.96%
      7     9  9505572.0000    14  1.40926e+008 -6.33569e+007    52661  144.96%
      8    10  2.82637e+007    46  1.40926e+008 -6.33569e+007    52751  144.96%
      9    11  8.19762e+007    24  1.40926e+008 -6.33569e+007    56185  144.96%
     10    12  2.82637e+007    52  1.40926e+008 -6.33569e+007    56214  144.96%
Elapsed time = 29.00 sec. (37948.78 ticks, tree = 0.01 MB, solutions = 1)
     11    13  6150662.0000    14  1.40926e+008  6150662.0000    56237   95.64%
     12    14  9505572.0000    19  1.40926e+008  6150662.0000    56275   95.64%
     13    15  2.82637e+007    36  1.40926e+008  6150662.0000    56344   95.64%
     14    16  8.19762e+007    24  1.40926e+008  6150662.0000    56345   95.64%
     15    15    infeasible        1.40926e+008  6150662.0000    56359   95.64%
     16    16  1.39349e+008    91  1.40926e+008  6150662.0000    56421   95.64%
     17    17  7.79848e+007    54  1.40926e+008  6150662.0000    61162   95.64%
     18    18  4.10433e+007    80  1.40926e+008  6150662.0000    64410   95.64%
     19    19  2.82637e+007    52  1.40926e+008  6150662.0000    64703   95.64%
     20    20  8.19762e+007     8  1.40926e+008  6150662.0000    64723   95.64%
Elapsed time = 39.42 sec. (41445.94 ticks, tree = 0.01 MB, solutions = 1)
     21    21  1.39349e+008    77  1.40926e+008  6150662.0000    64808   95.64%
     24    22  8.19762e+007    36  1.40926e+008  6150662.0000    65011   95.64%
     25    23  8.19762e+007    32  1.40926e+008  6150662.0000    65097   95.64%
     26    24  8.19762e+007    46  1.40926e+008  6150662.0000    65137   95.64%
     27    25  8.19762e+007    16  1.40926e+008  6150662.0000    65249   95.64%
     28    26  8.19762e+007    16  1.40926e+008  6150662.0000    66758   95.64%
     29    27  6150662.0000    16  1.40926e+008  6150662.0000    66771   95.64%
     30    28  9505572.0000    19  1.40926e+008  6150662.0000    66785   95.64%
     31    29  2.82637e+007    76  1.40926e+008  6150662.0000    66799   95.64%
     32    30  8.19762e+007    16  1.40926e+008  6150662.0000    66800   95.64%
Elapsed time = 40.27 sec. (48227.38 ticks, tree = 0.01 MB, solutions = 1)
     35    33  3.70474e+007    78  1.40926e+008  6150662.0000    69836   95.64%
     36    34  2.13807e+007    38  1.40926e+008  6150662.0000    71744   95.64%
     38    36  8.19762e+007    16  1.40926e+008  6150662.0000    71756   95.64%
     41    39  6150662.0000    19  1.40926e+008  6150662.0000    71810   95.64%
     42    40  9505572.0000    26  1.40926e+008  6150662.0000    71820   95.64%
     44    42  8.19762e+007    16  1.40926e+008  6150662.0000    71868   95.64%
     47    43  1.74107e+007     8  1.40926e+008  6150662.0000    73674   95.64%
     48    44  1.31815e+007   104  1.40926e+008  6150662.0000    74276   95.64%
     50    46  8.19762e+007    16  1.40926e+008  6150662.0000    74309   95.64%
     53    49  1.74107e+007     8  1.40926e+008  6150662.0000    74367   95.64%
Elapsed time = 46.13 sec. (52132.01 ticks, tree = 0.01 MB, solutions = 1)
     94    86  1.39349e+008    81  1.40926e+008  6150662.0000    76652   95.64%
    100    92  1.39349e+008    75  1.40926e+008  6150662.0000    76746   95.64%
    102    94  1.19338e+007    38  1.40926e+008  6150662.0000    76856   95.64%
    106    98  1.39349e+008    53  1.40926e+008  6150662.0000    76935   95.64%
    107    99  1.74122e+007    60  1.40926e+008  6150662.0000    76940   95.64%
    108   100  1.19338e+007    38  1.40926e+008  6150662.0000    76941   95.64%
    112   104  1.39349e+008    55  1.40926e+008  6150662.0000    77085   95.64%
    113   105  1.74144e+007     2  1.40926e+008  6150662.0000    77131   95.64%
    114   106  1.19338e+007    38  1.40926e+008  6150662.0000    77132   95.64%
    118   110  1.39349e+008    65  1.40926e+008  6150662.0000    77263   95.64%
Elapsed time = 47.89 sec. (53803.16 ticks, tree = 0.01 MB, solutions = 1)
    126   116  2.15765e+007    63  1.40926e+008  6150662.0000    81437   95.64%
*   140+  128                      1.39439e+008  6150662.0000            95.59%
    141   131  2.98938e+007    53  1.39439e+008  6150662.0000    86956   95.59%
    142   132  3.64904e+007    65  1.39439e+008  6150662.0000   102389   95.59%
    145   135  1.39349e+008    55  1.39439e+008  6150662.0000   102484   95.59%
    148   138  1.39349e+008    40  1.39439e+008  6150662.0000   102636   95.59%
    151   141  1.39349e+008    73  1.39439e+008  6150662.0000   102763   95.59%
*   153   138      integral     0  4.10437e+007  6150662.0000   102776   85.01%
    154   139  1.39349e+008    73  4.10437e+007  6150662.0000   102846   85.01%
    156   141  1.39349e+008    65  4.10437e+007  6150662.0000   102971   85.01%
    180   165  8.19766e+007    36  4.10437e+007  6150662.0000   103802   85.01%
Elapsed time = 54.14 sec. (54875.71 ticks, tree = 0.01 MB, solutions = 1)
    186   171  8.19767e+007    44  4.10437e+007  6150662.0000   104097   85.01%
    187    80  2.17612e+007    46  4.10437e+007  6150662.0000   108044   85.01%
    188    81  1.19347e+007    27  4.10437e+007  6150662.0000   108061   85.01%
    189    82  2.83399e+007    77  4.10437e+007  6150662.0000   108795   85.01%
    190    83  1.17602e+007    10  4.10437e+007  6150662.0000   109160   85.01%
    191    84  4.10433e+007    80  4.10437e+007  6150662.0000   109161   85.01%
    192    85  1.14455e+007    46  4.10437e+007  6150662.0000   109459   85.01%
    193    84        cutoff        4.10437e+007  6150662.0000   109901   85.01%
    194    85  1.19389e+007    29  4.10437e+007  6150662.0000   109948   85.01%
    195    86  3.64904e+007    65  4.10437e+007  6150662.0000   109949   85.01%
Elapsed time = 60.63 sec. (62227.77 ticks, tree = 1.01 MB, solutions = 3)
    196    87  1.72822e+007    42  4.10437e+007  6150662.0000   111900   85.01%
    199    90  2.17612e+007    74  4.10437e+007  6150662.0000   112481   85.01%
    202    93  1.17602e+007    10  4.10437e+007  6150662.0000   112518   85.01%
    204    95  1.94242e+007    99  4.10437e+007  6150662.0000   116079   85.01%
    205    96  2.17612e+007    71  4.10437e+007  6150662.0000   116145   85.01%
    208    99  1.17602e+007    10  4.10437e+007  6150662.0000   116184   85.01%
*   210+   89                      1.16523e+007  6150662.0000            47.22%
    210    91  1.15882e+007    49  1.16523e+007  6150662.0000   116299   47.22%
    211    92  2.17612e+007    28  1.16523e+007  6150662.0000   116321   47.22%
    214    95  1.32350e+007    30  1.16523e+007  6150662.0000   117008   47.22%
    216    95        cutoff        1.16523e+007  6150662.0000   117204   47.22%
Elapsed time = 62.33 sec. (65906.56 ticks, tree = 1.01 MB, solutions = 3)
    229   106  2.17612e+007    61  1.16523e+007  6150662.0000   117883   47.22%
    235   112  2.17612e+007    47  1.16523e+007  6150662.0000   118065   47.22%
    241   118  2.17612e+007    18  1.16523e+007  6150662.0000   118405   47.22%
    247   124  2.17612e+007    18  1.16523e+007  6150662.0000   118584   47.22%
    253   130  2.17612e+007    56  1.16523e+007  6150662.0000   118882   47.22%
    281   144  1.19087e+007    65  1.16523e+007  6150662.0000   120188   47.22%
    286   145    infeasible        1.16523e+007  6150662.0000   120279   47.22%
    291   150  1.19087e+007    65  1.16523e+007  6150662.0000   120350   47.22%
    296   154  1.19088e+007    85  1.16523e+007  6150662.0000   120629   47.22%
    301   157  1.19109e+007    45  1.16523e+007  6150662.0000   120869   47.22%
Elapsed time = 67.36 sec. (67086.05 ticks, tree = 1.01 MB, solutions = 3)
    320   176  3.64948e+007    47  1.16523e+007  6150662.0000   121510   47.22%
    333   187  1.19627e+007    59  1.16523e+007  6150662.0000   122584   47.22%
    336   190  1.19628e+007    45  1.16523e+007  6150662.0000   122674   47.22%
    339   193  1.19628e+007    39  1.16523e+007  6150662.0000   122727   47.22%
    341   195  1.20075e+007    33  1.16523e+007  6150662.0000   123006   47.22%
    342   196  1.19628e+007    66  1.16523e+007  6150662.0000   123016   47.22%
    358   212  1.24715e+007    53  1.16523e+007  6150662.0000   123679   47.22%
    359   213  1.24715e+007    63  1.16523e+007  6150662.0000   123794   47.22%
    360     8  9408233.5333    34  1.16523e+007  6150662.0000   124273   47.22%
    373    11  7769017.0000    49  1.16523e+007  6150662.0000   125763   47.22%
Elapsed time = 71.77 sec. (70993.14 ticks, tree = 0.08 MB, solutions = 6)
*   415    42      integral     0  1.11690e+007  6150662.0000   129000   44.93%
    417    44  8180975.7143    20  1.11690e+007  6150662.0000   129251   44.93%
    419    46  8180975.7143    20  1.11690e+007  6150662.0000   129373   44.93%
    421    48  8180975.7143    20  1.11690e+007  6150662.0000   129379   44.93%
    423    50  8180995.5000    44  1.11690e+007  6150662.0000   129422   44.93%
    425    52  8181002.4000   124  1.11690e+007  6150662.0000   129455   44.93%
    427    54  8274112.4444    30  1.11690e+007  6150662.0000   129650   44.93%
    429    56  8319255.0000    87  1.11690e+007  6150662.0000   129767   44.93%
    431    58  9043970.7500    69  1.11690e+007  6150662.0000   130018   44.93%
    433    60  9447002.5000    34  1.11690e+007  6150662.0000   130021   44.93%
Elapsed time = 71.77 sec. (74909.48 ticks, tree = 0.08 MB, solutions = 6)
    470    90  9415595.2308    50  1.11690e+007  7801759.0000   131784   30.15%
    476    96  9415828.5806    50  1.11690e+007  7801759.0000   132082   30.15%
    482   102  9418127.7857    64  1.11690e+007  7801759.0000   132328   30.15%
    488   106  9419372.1333    60  1.11690e+007  7801759.0000   132408   30.15%
    494   112  9419984.4815    72  1.11690e+007  7801759.0000   132590   30.15%
    500   116  9420787.3103    92  1.11690e+007  7801759.0000   133103   30.15%
    506   120  9423060.8000    60  1.11690e+007  7801759.0000   133241   30.15%
    512   126  9425239.6667    66  1.11690e+007  7801759.0000   133390   30.15%
    518   132  9425666.0645    50  1.11690e+007  7801759.0000   134255   30.15%
    520   134  1.07277e+007    50  1.11690e+007  7801759.0000   134668   30.15%
Elapsed time = 77.47 sec. (78782.51 ticks, tree = 0.01 MB, solutions = 7)
*   607   205      integral     0  8370323.0000  7801759.0000   138048    6.79%
*   715   293      integral     0  8369957.0000  7801759.0000   141891    6.79%
    759   325  9925004.8618    55  8369957.0000  7801759.0000   143169    6.79%
    789    82  8357627.5000    51  8369957.0000  7801759.0000   143612    6.79%
    790    83  7942265.0000    47  8369957.0000  7801759.0000   143883    6.79%
    791    84  8180975.7143    20  8369957.0000  7801759.0000   143885    6.79%
    792    85  8366346.1250    51  8369957.0000  7801759.0000   143894    6.79%
    793    86  8341245.6667    29  8369957.0000  7801759.0000   144087    6.79%
    794    85    infeasible        8369957.0000  7801759.0000   144087    6.79%
    795    84        cutoff        8369957.0000  7801759.0000   144088    6.79%
Elapsed time = 84.70 sec. (83427.00 ticks, tree = 0.01 MB, solutions = 12)
*   854+  117                      8335527.0000  7801759.0000             6.40%
*   892   123      integral     0  8264920.0000  7801759.0000   146098    5.60%
*  1012+  120                      8193672.0000  7801759.0000             4.78%
*  1012+  120                      8192792.0000  7801759.0000             4.77%
*  1016   105      integral     0  8104767.0000  7801759.0000   148297    3.74%
*  1046+  119                      8040510.0000  7801759.0000             2.97%
   1181   165  8006042.0706    71  8040510.0000  7801759.0000   151025    2.97%
   1185   169  8006506.0000    44  8040510.0000  7801759.0000   151060    2.97%
   1189   170  8006506.0000    40  8040510.0000  7801759.0000   151125    2.97%
   1193   172  8006506.0000    37  8040510.0000  7801759.0000   151149    2.97%
   1197   176  8006506.0000    37  8040510.0000  7801759.0000   151210    2.97%
   1201   180  8006506.0000    34  8040510.0000  7801759.0000   151230    2.97%
   1205   182  8006506.0000    31  8040510.0000  7801759.0000   151260    2.97%
   1209   186  8006506.0000    28  8040510.0000  7801759.0000   151268    2.97%
   1213   190  8006506.0000    25  8040510.0000  7801759.0000   151281    2.97%
   1217   190  8006506.0000    22  8040510.0000  7801759.0000   151310    2.97%
Elapsed time = 93.30 sec. (87491.13 ticks, tree = 0.01 MB, solutions = 12)
*  1317   148      integral     0  8012216.0000  7801759.0000   152328    2.63%
*  1487    98      integral     0  8010543.0000  8005949.7318   155073    0.06%
   1799   178    infeasible        8010543.0000  8005949.7318   158180    0.06%
   1804   177        cutoff        8010543.0000  8005949.7318   158233    0.06%
   1809   180  8010147.0000    20  8010543.0000  8005949.7318   158292    0.06%
   1814   181        cutoff        8010543.0000  8005949.7318   158324    0.06%
   1816   179    infeasible        8010543.0000  8005949.7318   158327    0.06%
   1819   180  8010863.2727    45  8010543.0000  8005949.7318   158361    0.06%
   1821   181  8011402.0000    29  8010543.0000  8005949.7318   158365    0.06%
   1824   177  8011080.5000    33  8010543.0000  8005949.7318   158392    0.06%
   1826   176  8011568.0000     6  8010543.0000  8005949.7318   158398    0.06%
   1827   175    infeasible        8010543.0000  8005949.7318   158418    0.06%
Elapsed time = 102.14 sec. (91316.20 ticks, tree = 0.01 MB, solutions = 33)

Mixed integer rounding cuts applied:  2

Root node processing (before b&c):
  Real time             =   14.25 sec. (11392.01 ticks)
Parallel b&c, 6 threads:
  Real time             =   88.55 sec. (83128.39 ticks)
  Sync time (average)   =   25.11 sec.
  Wait time (average)   =   25.19 sec.
                          ------------
Total (root+branch&cut) =  102.80 sec. (94520.39 ticks)
